/*********************************************
 * OPL 12.6.0.0 Data
 * Author: QZ61P8
 * Creation Date: 10.07.2014 at 08:59:12
 *********************************************/


nNetworks = 1;
nTime = 50;
nInterfaceTypes = 2;
nFlows = 16;

//channel model: generated Thu May 26 10:25:24 CEST 2016
availChunkBuckets = //[Networks, Time]  
[
	[45, 45, 45, 45, 45, 45, 45, 45, 45, 45, 45, 45, 45, 45, 45, 45, 45, 45, 45, 45, 45, 45, 45, 45, 45, 45, 45, 45, 45, 45, 45, 45, 45, 45, 45, 45, 45, 45, 45, 45, 45, 45, 45, 45, 45, 45, 45, 45, 45, 45]
];
	
network_cost = //[Networks] 
	[22];				//static cost per channel (change later to more realistic model)
network_lcy =
	[11];
network_jit =
	[6];	

network_type= //[Networks] 				//each channel has a specific type; e.g. WiFi, LTE..
	[2];		
nClientInterfaces = //[InterfaceTypes]
	[1, 1];	

//requests: generated Thu May 26 10:25:25 CEST 2016
nChunks = 				[225, 495, 135, 450, 262, 577, 157, 525, 375, 825, 225, 750, 250, 550, 150, 500];		//[Flows]		
deadline= 				[28, 41, 48, 38, 45, 36, 45, 30, 36, 28, 35, 38, 46, 25, 47, 38];		//[Flows] 
prefStartTime = 		[12, 0, 20, 33, 20, 0, 23, 23, 11, 0, 20, 36, 30, 0, 24, 30];		//[Flows]
tpMaxWindow = 			[1, 1, 1, 1, 1, 1, 1, 1, 1, 1, 1, 1, 1, 1, 1, 1];		//[Flows]	//0 says not relevant/no maximum transfer rate; upper throughput limit
tpMaxChunks = 			[100000, 100000, 4, 100000, 100000, 100000, 7, 100000, 100000, 100000, 15, 100000, 100000, 100000, 6, 100000]; 		//maximum of chunks in above specified time frame
tpMinWindow = 			[12, 100000, 1, 100000, 15, 100000, 1, 100000, 14, 100000, 1, 100000, 12, 100000, 1, 100000];		//[Flows]  //1000 says not relevant / no minimum transfer rate
tpMinChunks = 			[42, 1, 1, 1, 37, 1, 1, 1, 52, 1, 5, 1, 45, 1, 3, 1]; 		//minimum of chunks in above specified time frame; lower throughput limit
latency = 				[10, 10, 4, 10, 10, 10, 4, 10, 10, 10, 4, 10, 10, 10, 4, 10];	
jitter = 				[10, 10, 4, 10, 10, 10, 4, 10, 10, 10, 4, 10, 10, 10, 4, 10];

hysteresis = 500;
importance = [
	[8, 0, 20, 8, 7, 0, 20, 9, 6, 0, 20, 7, 5, 0, 20, 9],	//deadline
	[3, 0, 10, 9, 4, 0, 10, 8, 5, 0, 10, 9, 2, 0, 10, 7],	//start time
	[, , , , , , , , , , , , , , , ],	//throughput upper bound
	[7, 0, 50, 0, 8, 0, 50, 0, 7, 0, 50, 0, 6, 0, 50, 0],	//throughput lower bound
	[4, 4, 3, 12, 6, 2, 5, 17, 5, 4, 6, 17, 5, 2, 5, 13],	//unsched
	[0, 0, 9, 0, 0, 0, 9, 0, 0, 0, 8, 0, 0, 0, 9, 0],	//latency
	[0, 0, 9, 0, 0, 0, 9, 0, 0, 0, 7, 0, 0, 0, 9, 0]	//jitter
]; //[ImportanceTypes, Flows]

//user profiles
userImportance = [5, 1, 8, 7, 8, 2, 9, 7, 7, 3, 11, 7, 9, 1, 11, 8]; //[Flows]
costImp = 15; //former willingness to pay is now inversely proportional value: cost importance 
 
